p tw 176 39601 2 
1 90 
1 91 
1 94 
1 96 
1 97 
1 99 
1 101 
1 103 
1 105 
1 107 
1 109 
1 111 
1 114 
1 115 
1 118 
1 120 
1 121 
1 123 
1 125 
1 128 
1 129 
1 131 
1 133 
1 135 
1 138 
1 139 
1 141 
1 144 
1 146 
1 147 
1 149 
1 151 
1 153 
1 155 
1 157 
1 159 
1 161 
1 163 
1 165 
1 168 
1 169 
1 171 
1 174 
1 176 
2 89 
2 92 
2 93 
2 95 
2 98 
2 100 
2 102 
2 104 
2 106 
2 108 
2 110 
2 112 
2 113 
2 116 
2 117 
2 119 
2 122 
2 124 
2 126 
2 127 
2 130 
2 132 
2 134 
2 136 
2 137 
2 140 
2 142 
2 143 
2 145 
2 148 
2 150 
2 152 
2 154 
2 156 
2 158 
2 160 
2 162 
2 164 
2 166 
2 167 
2 170 
2 172 
2 173 
2 175 
3 4 
3 90 
3 92 
3 93 
3 95 
3 98 
3 100 
3 102 
3 103 
3 105 
3 108 
3 110 
3 111 
3 114 
3 116 
3 117 
3 119 
3 122 
3 124 
3 125 
3 127 
3 129 
3 131 
3 133 
3 136 
3 137 
3 140 
3 142 
3 144 
3 146 
3 147 
3 149 
3 151 
3 154 
3 155 
3 157 
3 159 
3 161 
3 164 
3 165 
3 168 
3 169 
3 172 
3 174 
3 175 
4 89 
4 91 
4 94 
4 96 
4 97 
4 99 
4 101 
4 104 
4 106 
4 107 
4 109 
4 112 
4 113 
4 115 
4 118 
4 120 
4 121 
4 123 
4 126 
4 128 
4 130 
4 132 
4 134 
4 135 
4 138 
4 139 
4 141 
4 143 
4 145 
4 148 
4 150 
4 152 
4 153 
4 156 
4 158 
4 160 
4 162 
4 163 
4 166 
4 167 
4 170 
4 171 
4 173 
4 176 
5 6 
5 90 
5 92 
5 94 
5 95 
5 97 
5 100 
5 102 
5 103 
5 106 
5 107 
5 110 
5 111 
5 113 
5 115 
5 117 
5 120 
5 121 
5 123 
5 126 
5 128 
5 130 
5 131 
5 133 
5 135 
5 137 
5 139 
5 142 
5 144 
5 146 
5 148 
5 149 
5 152 
5 153 
5 155 
5 158 
5 160 
5 162 
5 164 
5 165 
5 168 
5 170 
5 172 
5 173 
5 175 
6 89 
6 91 
6 93 
6 96 
6 98 
6 99 
6 101 
6 104 
6 105 
6 108 
6 109 
6 112 
6 114 
6 116 
6 118 
6 119 
6 122 
6 124 
6 125 
6 127 
6 129 
6 132 
6 134 
6 136 
6 138 
6 140 
6 141 
6 143 
6 145 
6 147 
6 150 
6 151 
6 154 
6 156 
6 157 
6 159 
6 161 
6 163 
6 166 
6 167 
6 169 
6 171 
6 174 
6 176 
7 8 
7 89 
7 92 
7 94 
7 95 
7 98 
7 100 
7 101 
7 104 
7 105 
7 108 
7 109 
7 112 
7 113 
7 115 
7 118 
7 119 
7 122 
7 123 
7 126 
7 128 
7 129 
7 131 
7 134 
7 136 
7 137 
7 139 
7 141 
7 144 
7 146 
7 147 
7 149 
7 152 
7 154 
7 155 
7 158 
7 160 
7 161 
7 163 
7 165 
7 167 
7 169 
7 172 
7 173 
7 176 
8 90 
8 91 
8 93 
8 96 
8 97 
8 99 
8 102 
8 103 
8 106 
8 107 
8 110 
8 111 
8 114 
8 116 
8 117 
8 120 
8 121 
8 124 
8 125 
8 127 
8 130 
8 132 
8 133 
8 135 
8 138 
8 140 
8 142 
8 143 
8 145 
8 148 
8 150 
8 151 
8 153 
8 156 
8 157 
8 159 
8 162 
8 164 
8 166 
8 168 
8 170 
8 171 
8 174 
8 175 
9 10 
9 89 
9 92 
9 94 
9 95 
9 98 
9 99 
9 102 
9 104 
9 105 
9 107 
9 110 
9 111 
9 114 
9 116 
9 118 
9 119 
9 121 
9 124 
9 126 
9 128 
9 130 
9 132 
9 133 
9 135 
9 137 
9 139 
9 141 
9 144 
9 145 
9 147 
9 149 
9 151 
9 153 
9 156 
9 158 
9 159 
9 161 
9 163 
9 166 
9 167 
9 170 
9 172 
9 174 
9 175 
10 90 
10 91 
10 93 
10 96 
10 97 
10 100 
10 101 
10 103 
10 106 
10 108 
10 109 
10 112 
10 113 
10 115 
10 117 
10 120 
10 122 
10 123 
10 125 
10 127 
10 129 
10 131 
10 134 
10 136 
10 138 
10 140 
10 142 
10 143 
10 146 
10 148 
10 150 
10 152 
10 154 
10 155 
10 157 
10 160 
10 162 
10 164 
10 165 
10 168 
10 169 
10 171 
10 173 
10 176 
11 12 
11 89 
11 92 
11 94 
11 95 
11 97 
11 99 
11 101 
11 103 
11 106 
11 108 
11 109 
11 111 
11 114 
11 116 
11 117 
11 120 
11 122 
11 123 
11 126 
11 128 
11 130 
11 131 
11 134 
11 136 
11 137 
11 140 
11 142 
11 144 
11 145 
11 148 
11 150 
11 151 
11 153 
11 156 
11 158 
11 159 
11 161 
11 164 
11 165 
11 167 
11 169 
11 171 
11 174 
11 176 
12 90 
12 91 
12 93 
12 96 
12 98 
12 100 
12 102 
12 104 
12 105 
12 107 
12 110 
12 112 
12 113 
12 115 
12 118 
12 119 
12 121 
12 124 
12 125 
12 127 
12 129 
12 132 
12 133 
12 135 
12 138 
12 139 
12 141 
12 143 
12 146 
12 147 
12 149 
12 152 
12 154 
12 155 
12 157 
12 160 
12 162 
12 163 
12 166 
12 168 
12 170 
12 172 
12 173 
12 175 
13 14 
13 89 
13 92 
13 93 
13 95 
13 97 
13 100 
13 101 
13 103 
13 105 
13 108 
13 110 
13 111 
13 113 
13 116 
13 118 
13 120 
13 121 
13 123 
13 125 
13 128 
13 130 
13 132 
13 134 
13 135 
13 138 
13 140 
13 141 
13 144 
13 146 
13 147 
13 150 
13 152 
13 154 
13 155 
13 157 
13 160 
13 161 
13 164 
13 166 
13 167 
13 170 
13 171 
13 174 
13 175 
14 90 
14 91 
14 94 
14 96 
14 98 
14 99 
14 102 
14 104 
14 106 
14 107 
14 109 
14 112 
14 114 
14 115 
14 117 
14 119 
14 122 
14 124 
14 126 
14 127 
14 129 
14 131 
14 133 
14 136 
14 137 
14 139 
14 142 
14 143 
14 145 
14 148 
14 149 
14 151 
14 153 
14 156 
14 158 
14 159 
14 162 
14 163 
14 165 
14 168 
14 169 
14 172 
14 173 
14 176 
15 16 
15 90 
15 92 
15 93 
15 96 
15 98 
15 99 
15 101 
15 103 
15 105 
15 107 
15 109 
15 112 
15 113 
15 115 
15 118 
15 120 
15 121 
15 124 
15 126 
15 127 
15 129 
15 132 
15 133 
15 136 
15 137 
15 140 
15 142 
15 144 
15 146 
15 148 
15 149 
15 152 
15 153 
15 156 
15 158 
15 160 
15 161 
15 164 
15 166 
15 167 
15 169 
15 171 
15 174 
15 175 
16 89 
16 91 
16 94 
16 95 
16 97 
16 100 
16 102 
16 104 
16 106 
16 108 
16 110 
16 111 
16 114 
16 116 
16 117 
16 119 
16 122 
16 123 
16 125 
16 128 
16 130 
16 131 
16 134 
16 135 
16 138 
16 139 
16 141 
16 143 
16 145 
16 147 
16 150 
16 151 
16 154 
16 155 
16 157 
16 159 
16 162 
16 163 
16 165 
16 168 
16 170 
16 172 
16 173 
16 176 
17 18 
17 89 
17 92 
17 94 
17 96 
17 98 
17 99 
17 101 
17 104 
17 105 
17 107 
17 110 
17 112 
17 114 
17 116 
17 118 
17 120 
17 122 
17 123 
17 125 
17 127 
17 130 
17 131 
17 133 
17 136 
17 137 
17 140 
17 142 
17 144 
17 145 
17 147 
17 150 
17 152 
17 153 
17 155 
17 157 
17 160 
17 162 
17 163 
17 165 
17 168 
17 170 
17 171 
17 173 
17 175 
18 90 
18 91 
18 93 
18 95 
18 97 
18 100 
18 102 
18 103 
18 106 
18 108 
18 109 
18 111 
18 113 
18 115 
18 117 
18 119 
18 121 
18 124 
18 126 
18 128 
18 129 
18 132 
18 134 
18 135 
18 138 
18 139 
18 141 
18 143 
18 146 
18 148 
18 149 
18 151 
18 154 
18 156 
18 158 
18 159 
18 161 
18 164 
18 166 
18 167 
18 169 
18 172 
18 174 
18 176 
19 20 
19 89 
19 91 
19 93 
19 96 
19 98 
19 99 
19 102 
19 103 
19 106 
19 108 
19 109 
19 111 
19 113 
19 116 
19 118 
19 120 
19 122 
19 124 
19 126 
19 127 
19 130 
19 131 
19 134 
19 135 
19 137 
19 139 
19 141 
19 144 
19 145 
19 147 
19 149 
19 152 
19 153 
19 155 
19 157 
19 160 
19 162 
19 164 
19 166 
19 168 
19 169 
19 172 
19 174 
19 176 
20 90 
20 92 
20 94 
20 95 
20 97 
20 100 
20 101 
20 104 
20 105 
20 107 
20 110 
20 112 
20 114 
20 115 
20 117 
20 119 
20 121 
20 123 
20 125 
20 128 
20 129 
20 132 
20 133 
20 136 
20 138 
20 140 
20 142 
20 143 
20 146 
20 148 
20 150 
20 151 
20 154 
20 156 
20 158 
20 159 
20 161 
20 163 
20 165 
20 167 
20 170 
20 171 
20 173 
20 175 
21 22 
21 89 
21 92 
21 94 
21 95 
21 98 
21 99 
21 101 
21 104 
21 106 
21 108 
21 109 
21 111 
21 113 
21 116 
21 117 
21 120 
21 121 
21 124 
21 126 
21 127 
21 129 
21 132 
21 133 
21 135 
21 138 
21 139 
21 142 
21 143 
21 146 
21 147 
21 150 
21 152 
21 154 
21 155 
21 158 
21 159 
21 162 
21 163 
21 165 
21 168 
21 169 
21 171 
21 174 
21 175 
22 90 
22 91 
22 93 
22 96 
22 97 
22 100 
22 102 
22 103 
22 105 
22 107 
22 110 
22 112 
22 114 
22 115 
22 118 
22 119 
22 122 
22 123 
22 125 
22 128 
22 130 
22 131 
22 134 
22 136 
22 137 
22 140 
22 141 
22 144 
22 145 
22 148 
22 149 
22 151 
22 153 
22 156 
22 157 
22 160 
22 161 
22 164 
22 166 
22 167 
22 170 
22 172 
22 173 
22 176 
23 24 
23 90 
23 91 
23 94 
23 95 
23 98 
23 99 
23 101 
23 103 
23 105 
23 108 
23 109 
23 112 
23 114 
23 116 
23 117 
23 120 
23 122 
23 123 
23 125 
23 128 
23 129 
23 132 
23 134 
23 135 
23 137 
23 139 
23 142 
23 143 
23 146 
23 147 
23 149 
23 152 
23 153 
23 156 
23 157 
23 159 
23 162 
23 164 
23 166 
23 167 
23 170 
23 172 
23 173 
23 175 
24 89 
24 92 
24 93 
24 96 
24 97 
24 100 
24 102 
24 104 
24 106 
24 107 
24 110 
24 111 
24 113 
24 115 
24 118 
24 119 
24 121 
24 124 
24 126 
24 127 
24 130 
24 131 
24 133 
24 136 
24 138 
24 140 
24 141 
24 144 
24 145 
24 148 
24 150 
24 151 
24 154 
24 155 
24 158 
24 160 
24 161 
24 163 
24 165 
24 168 
24 169 
24 171 
24 174 
24 176 
25 26 
25 89 
25 91 
25 94 
25 96 
25 98 
25 100 
25 102 
25 103 
25 106 
25 108 
25 110 
25 112 
25 113 
25 115 
25 117 
25 120 
25 121 
25 123 
25 126 
25 128 
25 129 
25 132 
25 133 
25 136 
25 137 
25 140 
25 142 
25 144 
25 145 
25 147 
25 149 
25 151 
25 154 
25 155 
25 157 
25 159 
25 162 
25 163 
25 166 
25 167 
25 170 
25 171 
25 174 
25 176 
26 90 
26 92 
26 93 
26 95 
26 97 
26 99 
26 101 
26 104 
26 105 
26 107 
26 109 
26 111 
26 114 
26 116 
26 118 
26 119 
26 122 
26 124 
26 125 
26 127 
26 130 
26 131 
26 134 
26 135 
26 138 
26 139 
26 141 
26 143 
26 146 
26 148 
26 150 
26 152 
26 153 
26 156 
26 158 
26 160 
26 161 
26 164 
26 165 
26 168 
26 169 
26 172 
26 173 
26 175 
27 28 
27 90 
27 91 
27 93 
27 96 
27 98 
27 99 
27 101 
27 104 
27 105 
27 108 
27 110 
27 111 
27 114 
27 116 
27 117 
27 120 
27 121 
27 124 
27 126 
27 128 
27 129 
27 131 
27 134 
27 136 
27 138 
27 139 
27 141 
27 144 
27 145 
27 148 
27 149 
27 151 
27 154 
27 155 
27 158 
27 160 
27 162 
27 164 
27 165 
27 167 
27 170 
27 171 
27 173 
27 175 
28 89 
28 92 
28 94 
28 95 
28 97 
28 100 
28 102 
28 103 
28 106 
28 107 
28 109 
28 112 
28 113 
28 115 
28 118 
28 119 
28 122 
28 123 
28 125 
28 127 
28 130 
28 132 
28 133 
28 135 
28 137 
28 140 
28 142 
28 143 
28 146 
28 147 
28 150 
28 152 
28 153 
28 156 
28 157 
28 159 
28 161 
28 163 
28 166 
28 168 
28 169 
28 172 
28 174 
28 176 
29 30 
29 90 
29 91 
29 94 
29 95 
29 98 
29 100 
29 102 
29 104 
29 105 
29 107 
29 109 
29 111 
29 113 
29 116 
29 117 
29 120 
29 121 
29 123 
29 126 
29 127 
29 129 
29 131 
29 133 
29 136 
29 138 
29 140 
29 141 
29 143 
29 145 
29 147 
29 150 
29 152 
29 153 
29 156 
29 157 
29 160 
29 161 
29 164 
29 165 
29 167 
29 170 
29 172 
29 174 
29 176 
30 89 
30 92 
30 93 
30 96 
30 97 
30 99 
30 101 
30 103 
30 106 
30 108 
30 110 
30 112 
30 114 
30 115 
30 118 
30 119 
30 122 
30 124 
30 125 
30 128 
30 130 
30 132 
30 134 
30 135 
30 137 
30 139 
30 142 
30 144 
30 146 
30 148 
30 149 
30 151 
30 154 
30 155 
30 158 
30 159 
30 162 
30 163 
30 166 
30 168 
30 169 
30 171 
30 173 
30 175 
31 32 
31 90 
31 92 
31 93 
31 95 
31 97 
31 100 
31 102 
31 104 
31 106 
31 108 
31 109 
31 112 
31 114 
31 115 
31 117 
31 120 
31 122 
31 124 
31 125 
31 128 
31 130 
31 132 
31 133 
31 136 
31 138 
31 139 
31 141 
31 144 
31 145 
31 147 
31 149 
31 152 
31 153 
31 156 
31 157 
31 160 
31 162 
31 163 
31 165 
31 167 
31 169 
31 171 
31 174 
31 175 
32 89 
32 91 
32 94 
32 96 
32 98 
32 99 
32 101 
32 103 
32 105 
32 107 
32 110 
32 111 
32 113 
32 116 
32 118 
32 119 
32 121 
32 123 
32 126 
32 127 
32 129 
32 131 
32 134 
32 135 
32 137 
32 140 
32 142 
32 143 
32 146 
32 148 
32 150 
32 151 
32 154 
32 155 
32 158 
32 159 
32 161 
32 164 
32 166 
32 168 
32 170 
32 172 
32 173 
32 176 
33 34 
33 90 
33 92 
33 94 
33 95 
33 97 
33 99 
33 101 
33 104 
33 106 
33 107 
33 110 
33 111 
33 113 
33 115 
33 118 
33 120 
33 122 
33 123 
33 126 
33 127 
33 129 
33 132 
33 134 
33 136 
33 138 
33 140 
33 141 
33 144 
33 145 
33 147 
33 149 
33 151 
33 154 
33 156 
33 157 
33 159 
33 162 
33 164 
33 166 
33 168 
33 169 
33 172 
33 173 
33 175 
34 89 
34 91 
34 93 
34 96 
34 98 
34 100 
34 102 
34 103 
34 105 
34 108 
34 109 
34 112 
34 114 
34 116 
34 117 
34 119 
34 121 
34 124 
34 125 
34 128 
34 130 
34 131 
34 133 
34 135 
34 137 
34 139 
34 142 
34 143 
34 146 
34 148 
34 150 
34 152 
34 153 
34 155 
34 158 
34 160 
34 161 
34 163 
34 165 
34 167 
34 170 
34 171 
34 174 
34 176 
35 36 
35 90 
35 92 
35 93 
35 95 
35 98 
35 100 
35 101 
35 104 
35 105 
35 107 
35 109 
35 111 
35 114 
35 115 
35 117 
35 120 
35 122 
35 123 
35 126 
35 127 
35 130 
35 132 
35 134 
35 135 
35 137 
35 139 
35 142 
35 143 
35 145 
35 148 
35 149 
35 151 
35 154 
35 155 
35 157 
35 160 
35 161 
35 163 
35 166 
35 168 
35 170 
35 171 
35 174 
35 176 
36 89 
36 91 
36 94 
36 96 
36 97 
36 99 
36 102 
36 103 
36 106 
36 108 
36 110 
36 112 
36 113 
36 116 
36 118 
36 119 
36 121 
36 124 
36 125 
36 128 
36 129 
36 131 
36 133 
36 136 
36 138 
36 140 
36 141 
36 144 
36 146 
36 147 
36 150 
36 152 
36 153 
36 156 
36 158 
36 159 
36 162 
36 164 
36 165 
36 167 
36 169 
36 172 
36 173 
36 175 
37 38 
37 89 
37 91 
37 93 
37 95 
37 97 
37 99 
37 102 
37 104 
37 105 
37 107 
37 109 
37 112 
37 113 
37 116 
37 118 
37 120 
37 122 
37 123 
37 125 
37 127 
37 130 
37 132 
37 133 
37 136 
37 138 
37 139 
37 142 
37 144 
37 146 
37 148 
37 149 
37 151 
37 154 
37 155 
37 158 
37 159 
37 162 
37 164 
37 165 
37 167 
37 170 
37 172 
37 174 
37 176 
38 90 
38 92 
38 94 
38 96 
38 98 
38 100 
38 101 
38 103 
38 106 
38 108 
38 110 
38 111 
38 114 
38 115 
38 117 
38 119 
38 121 
38 124 
38 126 
38 128 
38 129 
38 131 
38 134 
38 135 
38 137 
38 140 
38 141 
38 143 
38 145 
38 147 
38 150 
38 152 
38 153 
38 156 
38 157 
38 160 
38 161 
38 163 
38 166 
38 168 
38 169 
38 171 
38 173 
38 175 
39 40 
39 90 
39 92 
39 93 
39 95 
39 97 
39 100 
39 101 
39 104 
39 106 
39 108 
39 109 
39 112 
39 114 
39 116 
39 118 
39 120 
39 121 
39 124 
39 126 
39 127 
39 129 
39 131 
39 133 
39 135 
39 137 
39 140 
39 141 
39 144 
39 146 
39 148 
39 150 
39 151 
39 153 
39 155 
39 157 
39 159 
39 162 
39 163 
39 166 
39 167 
39 170 
39 172 
39 173 
39 176 
40 89 
40 91 
40 94 
40 96 
40 98 
40 99 
40 102 
40 103 
40 105 
40 107 
40 110 
40 111 
40 113 
40 115 
40 117 
40 119 
40 122 
40 123 
40 125 
40 128 
40 130 
40 132 
40 134 
40 136 
40 138 
40 139 
40 142 
40 143 
40 145 
40 147 
40 149 
40 152 
40 154 
40 156 
40 158 
40 160 
40 161 
40 164 
40 165 
40 168 
40 169 
40 171 
40 174 
40 175 
41 42 
41 90 
41 92 
41 94 
41 95 
41 98 
41 99 
41 102 
41 103 
41 106 
41 107 
41 110 
41 112 
41 113 
41 116 
41 118 
41 120 
41 122 
41 124 
41 125 
41 128 
41 129 
41 132 
41 133 
41 135 
41 137 
41 139 
41 141 
41 143 
41 145 
41 148 
41 150 
41 151 
41 154 
41 155 
41 157 
41 160 
41 161 
41 164 
41 165 
41 167 
41 169 
41 171 
41 173 
41 176 
42 89 
42 91 
42 93 
42 96 
42 97 
42 100 
42 101 
42 104 
42 105 
42 108 
42 109 
42 111 
42 114 
42 115 
42 117 
42 119 
42 121 
42 123 
42 126 
42 127 
42 130 
42 131 
42 134 
42 136 
42 138 
42 140 
42 142 
42 144 
42 146 
42 147 
42 149 
42 152 
42 153 
42 156 
42 158 
42 159 
42 162 
42 163 
42 166 
42 168 
42 170 
42 172 
42 174 
42 175 
43 44 
43 90 
43 91 
43 93 
43 95 
43 98 
43 100 
43 101 
43 103 
43 106 
43 107 
43 109 
43 111 
43 113 
43 116 
43 118 
43 119 
43 122 
43 123 
43 125 
43 128 
43 129 
43 131 
43 133 
43 136 
43 137 
43 139 
43 141 
43 144 
43 145 
43 148 
43 150 
43 152 
43 154 
43 156 
43 158 
43 159 
43 162 
43 163 
43 166 
43 168 
43 170 
43 171 
43 174 
43 175 
44 89 
44 92 
44 94 
44 96 
44 97 
44 99 
44 102 
44 104 
44 105 
44 108 
44 110 
44 112 
44 114 
44 115 
44 117 
44 120 
44 121 
44 124 
44 126 
44 127 
44 130 
44 132 
44 134 
44 135 
44 138 
44 140 
44 142 
44 143 
44 146 
44 147 
44 149 
44 151 
44 153 
44 155 
44 157 
44 160 
44 161 
44 164 
44 165 
44 167 
44 169 
44 172 
44 173 
44 176 
45 46 
45 89 
45 91 
45 93 
45 95 
45 98 
45 100 
45 102 
45 104 
45 106 
45 107 
45 109 
45 112 
45 114 
45 116 
45 118 
45 119 
45 121 
45 123 
45 126 
45 128 
45 129 
45 132 
45 134 
45 135 
45 138 
45 140 
45 142 
45 144 
45 145 
45 148 
45 149 
45 152 
45 153 
45 155 
45 157 
45 159 
45 161 
45 164 
45 165 
45 168 
45 169 
45 171 
45 173 
45 175 
46 90 
46 92 
46 94 
46 96 
46 97 
46 99 
46 101 
46 103 
46 105 
46 108 
46 110 
46 111 
46 113 
46 115 
46 117 
46 120 
46 122 
46 124 
46 125 
46 127 
46 130 
46 131 
46 133 
46 136 
46 137 
46 139 
46 141 
46 143 
46 146 
46 147 
46 150 
46 151 
46 154 
46 156 
46 158 
46 160 
46 162 
46 163 
46 166 
46 167 
46 170 
46 172 
46 174 
46 176 
47 48 
47 89 
47 91 
47 94 
47 96 
47 98 
47 100 
47 101 
47 104 
47 106 
47 107 
47 109 
47 111 
47 113 
47 116 
47 117 
47 120 
47 122 
47 124 
47 125 
47 128 
47 130 
47 131 
47 133 
47 135 
47 138 
47 140 
47 142 
47 144 
47 146 
47 148 
47 149 
47 151 
47 154 
47 156 
47 157 
47 160 
47 161 
47 163 
47 166 
47 167 
47 169 
47 172 
47 173 
47 175 
48 90 
48 92 
48 93 
48 95 
48 97 
48 99 
48 102 
48 103 
48 105 
48 108 
48 110 
48 112 
48 114 
48 115 
48 118 
48 119 
48 121 
48 123 
48 126 
48 127 
48 129 
48 132 
48 134 
48 136 
48 137 
48 139 
48 141 
48 143 
48 145 
48 147 
48 150 
48 152 
48 153 
48 155 
48 158 
48 159 
48 162 
48 164 
48 165 
48 168 
48 170 
48 171 
48 174 
48 176 
49 50 
49 89 
49 92 
49 93 
49 95 
49 98 
49 99 
49 101 
49 103 
49 106 
49 107 
49 109 
49 112 
49 114 
49 115 
49 117 
49 120 
49 121 
49 124 
49 125 
49 128 
49 130 
49 131 
49 133 
49 136 
49 138 
49 140 
49 141 
49 143 
49 145 
49 147 
49 149 
49 152 
49 154 
49 155 
49 158 
49 159 
49 161 
49 164 
49 166 
49 168 
49 170 
49 172 
49 173 
49 176 
50 90 
50 91 
50 94 
50 96 
50 97 
50 100 
50 102 
50 104 
50 105 
50 108 
50 110 
50 111 
50 113 
50 116 
50 118 
50 119 
50 122 
50 123 
50 126 
50 127 
50 129 
50 132 
50 134 
50 135 
50 137 
50 139 
50 142 
50 144 
50 146 
50 148 
50 150 
50 151 
50 153 
50 156 
50 157 
50 160 
50 162 
50 163 
50 165 
50 167 
50 169 
50 171 
50 174 
50 175 
51 52 
51 89 
51 91 
51 94 
51 95 
51 98 
51 100 
51 101 
51 104 
51 106 
51 108 
51 110 
51 112 
51 113 
51 115 
51 118 
51 120 
51 121 
51 124 
51 125 
51 127 
51 130 
51 131 
51 134 
51 136 
51 137 
51 139 
51 141 
51 143 
51 146 
51 148 
51 149 
51 151 
51 153 
51 156 
51 157 
51 159 
51 161 
51 164 
51 165 
51 168 
51 170 
51 171 
51 174 
51 175 
52 90 
52 92 
52 93 
52 96 
52 97 
52 99 
52 102 
52 103 
52 105 
52 107 
52 109 
52 111 
52 114 
52 116 
52 117 
52 119 
52 122 
52 123 
52 126 
52 128 
52 129 
52 132 
52 133 
52 135 
52 138 
52 140 
52 142 
52 144 
52 145 
52 147 
52 150 
52 152 
52 154 
52 155 
52 158 
52 160 
52 162 
52 163 
52 166 
52 167 
52 169 
52 172 
52 173 
52 176 
53 54 
53 90 
53 92 
53 94 
53 96 
53 98 
53 100 
53 101 
53 103 
53 106 
53 107 
53 109 
53 112 
53 114 
53 116 
53 118 
53 119 
53 121 
53 124 
53 126 
53 128 
53 130 
53 132 
53 134 
53 136 
53 138 
53 139 
53 142 
53 144 
53 146 
53 147 
53 150 
53 151 
53 154 
53 156 
53 157 
53 160 
53 162 
53 164 
53 165 
53 168 
53 170 
53 172 
53 174 
53 176 
54 89 
54 91 
54 93 
54 95 
54 97 
54 99 
54 102 
54 104 
54 105 
54 108 
54 110 
54 111 
54 113 
54 115 
54 117 
54 120 
54 122 
54 123 
54 125 
54 127 
54 129 
54 131 
54 133 
54 135 
54 137 
54 140 
54 141 
54 143 
54 145 
54 148 
54 149 
54 152 
54 153 
54 155 
54 158 
54 159 
54 161 
54 163 
54 166 
54 167 
54 169 
54 171 
54 173 
54 175 
55 56 
55 89 
55 92 
55 93 
55 95 
55 98 
55 99 
55 101 
55 104 
55 105 
55 108 
55 110 
55 112 
55 113 
55 115 
55 117 
55 119 
55 121 
55 123 
55 125 
55 128 
55 129 
55 131 
55 133 
55 135 
55 138 
55 139 
55 142 
55 144 
55 145 
55 148 
55 150 
55 151 
55 153 
55 156 
55 157 
55 160 
55 162 
55 164 
55 166 
55 168 
55 169 
55 172 
55 174 
55 176 
56 90 
56 91 
56 94 
56 96 
56 97 
56 100 
56 102 
56 103 
56 106 
56 107 
56 109 
56 111 
56 114 
56 116 
56 118 
56 120 
56 122 
56 124 
56 126 
56 127 
56 130 
56 132 
56 134 
56 136 
56 137 
56 140 
56 141 
56 143 
56 146 
56 147 
56 149 
56 152 
56 154 
56 155 
56 158 
56 159 
56 161 
56 163 
56 165 
56 167 
56 170 
56 171 
56 173 
56 175 
57 58 
57 90 
57 91 
57 93 
57 95 
57 98 
57 100 
57 101 
57 103 
57 105 
57 107 
57 110 
57 112 
57 113 
57 115 
57 118 
57 120 
57 122 
57 124 
57 126 
57 128 
57 130 
57 131 
57 134 
57 135 
57 138 
57 140 
57 142 
57 143 
57 145 
57 147 
57 150 
57 151 
57 153 
57 155 
57 158 
57 159 
57 162 
57 163 
57 165 
57 167 
57 169 
57 172 
57 174 
57 175 
58 89 
58 92 
58 94 
58 96 
58 97 
58 99 
58 102 
58 104 
58 106 
58 108 
58 109 
58 111 
58 114 
58 116 
58 117 
58 119 
58 121 
58 123 
58 125 
58 127 
58 129 
58 132 
58 133 
58 136 
58 137 
58 139 
58 141 
58 144 
58 146 
58 148 
58 149 
58 152 
58 154 
58 156 
58 157 
58 160 
58 161 
58 164 
58 166 
58 168 
58 170 
58 171 
58 173 
58 176 
59 60 
59 90 
59 91 
59 94 
59 95 
59 98 
59 99 
59 102 
59 104 
59 106 
59 108 
59 110 
59 111 
59 114 
59 115 
59 118 
59 120 
59 122 
59 124 
59 125 
59 128 
59 129 
59 132 
59 134 
59 136 
59 138 
59 140 
59 142 
59 144 
59 146 
59 148 
59 150 
59 152 
59 153 
59 155 
59 158 
59 160 
59 161 
59 163 
59 166 
59 168 
59 170 
59 172 
59 174 
59 176 
60 89 
60 92 
60 93 
60 96 
60 97 
60 100 
60 101 
60 103 
60 105 
60 107 
60 109 
60 112 
60 113 
60 116 
60 117 
60 119 
60 121 
60 123 
60 126 
60 127 
60 130 
60 131 
60 133 
60 135 
60 137 
60 139 
60 141 
60 143 
60 145 
60 147 
60 149 
60 151 
60 154 
60 156 
60 157 
60 159 
60 162 
60 164 
60 165 
60 167 
60 169 
60 171 
60 173 
60 175 
61 62 
61 90 
61 92 
61 94 
61 95 
61 98 
61 99 
61 102 
61 103 
61 105 
61 108 
61 109 
61 111 
61 113 
61 115 
61 118 
61 119 
61 121 
61 124 
61 125 
61 127 
61 130 
61 131 
61 134 
61 135 
61 138 
61 140 
61 142 
61 144 
61 145 
61 148 
61 149 
61 152 
61 154 
61 156 
61 157 
61 159 
61 162 
61 163 
61 165 
61 167 
61 170 
61 171 
61 173 
61 176 
62 89 
62 91 
62 93 
62 96 
62 97 
62 100 
62 101 
62 104 
62 106 
62 107 
62 110 
62 112 
62 114 
62 116 
62 117 
62 120 
62 122 
62 123 
62 126 
62 128 
62 129 
62 132 
62 133 
62 136 
62 137 
62 139 
62 141 
62 143 
62 146 
62 147 
62 150 
62 151 
62 153 
62 155 
62 158 
62 160 
62 161 
62 164 
62 166 
62 168 
62 169 
62 172 
62 174 
62 175 
63 64 
63 89 
63 91 
63 94 
63 95 
63 97 
63 100 
63 101 
63 103 
63 105 
63 107 
63 110 
63 112 
63 114 
63 116 
63 117 
63 120 
63 121 
63 124 
63 125 
63 127 
63 129 
63 132 
63 134 
63 135 
63 137 
63 140 
63 141 
63 144 
63 145 
63 148 
63 149 
63 152 
63 154 
63 156 
63 158 
63 160 
63 162 
63 163 
63 165 
63 168 
63 169 
63 172 
63 174 
63 176 
64 90 
64 92 
64 93 
64 96 
64 98 
64 99 
64 102 
64 104 
64 106 
64 108 
64 109 
64 111 
64 113 
64 115 
64 118 
64 119 
64 122 
64 123 
64 126 
64 128 
64 130 
64 131 
64 133 
64 136 
64 138 
64 139 
64 142 
64 143 
64 146 
64 147 
64 150 
64 151 
64 153 
64 155 
64 157 
64 159 
64 161 
64 164 
64 166 
64 167 
64 170 
64 171 
64 173 
64 175 
65 66 
65 90 
65 91 
65 93 
65 95 
65 98 
65 99 
65 101 
65 103 
65 106 
65 108 
65 110 
65 112 
65 113 
65 116 
65 117 
65 119 
65 122 
65 123 
65 126 
65 127 
65 130 
65 132 
65 133 
65 135 
65 138 
65 140 
65 141 
65 144 
65 146 
65 147 
65 149 
65 151 
65 153 
65 156 
65 158 
65 160 
65 161 
65 163 
65 165 
65 168 
65 170 
65 171 
65 173 
65 176 
66 89 
66 92 
66 94 
66 96 
66 97 
66 100 
66 102 
66 104 
66 105 
66 107 
66 109 
66 111 
66 114 
66 115 
66 118 
66 120 
66 121 
66 124 
66 125 
66 128 
66 129 
66 131 
66 134 
66 136 
66 137 
66 139 
66 142 
66 143 
66 145 
66 148 
66 150 
66 152 
66 154 
66 155 
66 157 
66 159 
66 162 
66 164 
66 166 
66 167 
66 169 
66 172 
66 174 
66 175 
67 68 
67 89 
67 92 
67 93 
67 96 
67 98 
67 100 
67 102 
67 104 
67 105 
67 107 
67 109 
67 111 
67 113 
67 115 
67 117 
67 120 
67 122 
67 124 
67 125 
67 128 
67 129 
67 132 
67 134 
67 135 
67 137 
67 140 
67 141 
67 144 
67 146 
67 147 
67 150 
67 151 
67 153 
67 156 
67 158 
67 159 
67 162 
67 164 
67 165 
67 168 
67 170 
67 171 
67 173 
67 176 
68 90 
68 91 
68 94 
68 95 
68 97 
68 99 
68 101 
68 103 
68 106 
68 108 
68 110 
68 112 
68 114 
68 116 
68 118 
68 119 
68 121 
68 123 
68 126 
68 127 
68 130 
68 131 
68 133 
68 136 
68 138 
68 139 
68 142 
68 143 
68 145 
68 148 
68 149 
68 152 
68 154 
68 155 
68 157 
68 160 
68 161 
68 163 
68 166 
68 167 
68 169 
68 172 
68 174 
68 175 
69 70 
69 89 
69 92 
69 93 
69 96 
69 98 
69 99 
69 102 
69 103 
69 106 
69 107 
69 110 
69 112 
69 114 
69 115 
69 117 
69 120 
69 122 
69 123 
69 126 
69 127 
69 129 
69 131 
69 134 
69 135 
69 138 
69 139 
69 141 
69 144 
69 146 
69 148 
69 150 
69 152 
69 154 
69 156 
69 157 
69 159 
69 161 
69 163 
69 165 
69 167 
69 170 
69 172 
69 174 
69 175 
70 90 
70 91 
70 94 
70 95 
70 97 
70 100 
70 101 
70 104 
70 105 
70 108 
70 109 
70 111 
70 113 
70 116 
70 118 
70 119 
70 121 
70 124 
70 125 
70 128 
70 130 
70 132 
70 133 
70 136 
70 137 
70 140 
70 142 
70 143 
70 145 
70 147 
70 149 
70 151 
70 153 
70 155 
70 158 
70 160 
70 162 
70 164 
70 166 
70 168 
70 169 
70 171 
70 173 
70 176 
71 72 
71 90 
71 91 
71 93 
71 96 
71 98 
71 100 
71 101 
71 104 
71 106 
71 108 
71 110 
71 111 
71 114 
71 115 
71 118 
71 120 
71 121 
71 123 
71 125 
71 127 
71 130 
71 132 
71 133 
71 135 
71 137 
71 139 
71 142 
71 144 
71 145 
71 147 
71 150 
71 152 
71 154 
71 156 
71 158 
71 159 
71 161 
71 164 
71 165 
71 167 
71 169 
71 172 
71 173 
71 176 
72 89 
72 92 
72 94 
72 95 
72 97 
72 99 
72 102 
72 103 
72 105 
72 107 
72 109 
72 112 
72 113 
72 116 
72 117 
72 119 
72 122 
72 124 
72 126 
72 128 
72 129 
72 131 
72 134 
72 136 
72 138 
72 140 
72 141 
72 143 
72 146 
72 148 
72 149 
72 151 
72 153 
72 155 
72 157 
72 160 
72 162 
72 163 
72 166 
72 168 
72 170 
72 171 
72 174 
72 175 
73 74 
73 90 
73 91 
73 94 
73 95 
73 98 
73 99 
73 102 
73 104 
73 106 
73 107 
73 109 
73 112 
73 114 
73 115 
73 117 
73 119 
73 121 
73 123 
73 125 
73 127 
73 130 
73 131 
73 134 
73 135 
73 137 
73 140 
73 141 
73 144 
73 146 
73 147 
73 150 
73 151 
73 154 
73 155 
73 158 
73 160 
73 162 
73 164 
73 166 
73 167 
73 169 
73 171 
73 174 
73 175 
74 89 
74 92 
74 93 
74 96 
74 97 
74 100 
74 101 
74 103 
74 105 
74 108 
74 110 
74 111 
74 113 
74 116 
74 118 
74 120 
74 122 
74 124 
74 126 
74 128 
74 129 
74 132 
74 133 
74 136 
74 138 
74 139 
74 142 
74 143 
74 145 
74 148 
74 149 
74 152 
74 153 
74 156 
74 157 
74 159 
74 161 
74 163 
74 165 
74 168 
74 170 
74 172 
74 173 
74 176 
75 76 
75 89 
75 92 
75 93 
75 95 
75 98 
75 100 
75 102 
75 103 
75 106 
75 107 
75 110 
75 111 
75 114 
75 116 
75 118 
75 120 
75 121 
75 123 
75 125 
75 127 
75 129 
75 131 
75 134 
75 136 
75 138 
75 139 
75 142 
75 143 
75 146 
75 147 
75 149 
75 151 
75 153 
75 156 
75 158 
75 160 
75 162 
75 163 
75 166 
75 167 
75 169 
75 171 
75 173 
75 176 
76 90 
76 91 
76 94 
76 96 
76 97 
76 99 
76 101 
76 104 
76 105 
76 108 
76 109 
76 112 
76 113 
76 115 
76 117 
76 119 
76 122 
76 124 
76 126 
76 128 
76 130 
76 132 
76 133 
76 135 
76 137 
76 140 
76 141 
76 144 
76 145 
76 148 
76 150 
76 152 
76 154 
76 155 
76 157 
76 159 
76 161 
76 164 
76 165 
76 168 
76 170 
76 172 
76 174 
76 175 
77 78 
77 90 
77 91 
77 93 
77 95 
77 97 
77 99 
77 102 
77 104 
77 105 
77 107 
77 110 
77 112 
77 113 
77 116 
77 117 
77 120 
77 121 
77 124 
77 126 
77 128 
77 130 
77 131 
77 134 
77 136 
77 137 
77 139 
77 142 
77 144 
77 146 
77 147 
77 150 
77 152 
77 154 
77 156 
77 157 
77 159 
77 161 
77 163 
77 166 
77 168 
77 169 
77 171 
77 173 
77 176 
78 89 
78 92 
78 94 
78 96 
78 98 
78 100 
78 101 
78 103 
78 106 
78 108 
78 109 
78 111 
78 114 
78 115 
78 118 
78 119 
78 122 
78 123 
78 125 
78 127 
78 129 
78 132 
78 133 
78 135 
78 138 
78 140 
78 141 
78 143 
78 145 
78 148 
78 149 
78 151 
78 153 
78 155 
78 158 
78 160 
78 162 
78 164 
78 165 
78 167 
78 170 
78 172 
78 174 
78 175 
79 80 
79 90 
79 92 
79 94 
79 96 
79 98 
79 100 
79 102 
79 104 
79 105 
79 108 
79 110 
79 112 
79 114 
79 116 
79 118 
79 120 
79 122 
79 123 
79 126 
79 128 
79 130 
79 131 
79 133 
79 135 
79 138 
79 140 
79 141 
79 143 
79 146 
79 148 
79 149 
79 152 
79 154 
79 156 
79 158 
79 159 
79 162 
79 164 
79 166 
79 168 
79 169 
79 171 
79 174 
79 176 
80 89 
80 91 
80 93 
80 95 
80 97 
80 99 
80 101 
80 103 
80 106 
80 107 
80 109 
80 111 
80 113 
80 115 
80 117 
80 119 
80 121 
80 124 
80 125 
80 127 
80 129 
80 132 
80 134 
80 136 
80 137 
80 139 
80 142 
80 144 
80 145 
80 147 
80 150 
80 151 
80 153 
80 155 
80 157 
80 160 
80 161 
80 163 
80 165 
80 167 
80 170 
80 172 
80 173 
80 175 
81 82 
81 89 
81 91 
81 93 
81 95 
81 98 
81 99 
81 102 
81 103 
81 105 
81 108 
81 109 
81 111 
81 114 
81 115 
81 118 
81 120 
81 121 
81 123 
81 126 
81 128 
81 130 
81 132 
81 133 
81 136 
81 137 
81 140 
81 141 
81 143 
81 146 
81 148 
81 150 
81 151 
81 154 
81 156 
81 157 
81 160 
81 162 
81 163 
81 165 
81 168 
81 169 
81 172 
81 173 
81 175 
82 90 
82 92 
82 94 
82 96 
82 97 
82 100 
82 101 
82 104 
82 106 
82 107 
82 110 
82 112 
82 113 
82 116 
82 117 
82 119 
82 122 
82 124 
82 125 
82 127 
82 129 
82 131 
82 134 
82 135 
82 138 
82 139 
82 142 
82 144 
82 145 
82 147 
82 149 
82 152 
82 153 
82 155 
82 158 
82 159 
82 161 
82 164 
82 166 
82 167 
82 170 
82 171 
82 174 
82 176 
83 84 
83 89 
83 91 
83 94 
83 95 
83 98 
83 100 
83 101 
83 103 
83 105 
83 107 
83 110 
83 111 
83 114 
83 115 
83 117 
83 119 
83 122 
83 124 
83 126 
83 127 
83 130 
83 132 
83 133 
83 136 
83 138 
83 139 
83 141 
83 144 
83 146 
83 148 
83 150 
83 152 
83 153 
83 155 
83 157 
83 159 
83 162 
83 164 
83 166 
83 167 
83 169 
83 171 
83 173 
83 176 
84 90 
84 92 
84 93 
84 96 
84 97 
84 99 
84 102 
84 104 
84 106 
84 108 
84 109 
84 112 
84 113 
84 116 
84 118 
84 120 
84 121 
84 123 
84 125 
84 128 
84 129 
84 131 
84 134 
84 135 
84 137 
84 140 
84 142 
84 143 
84 145 
84 147 
84 149 
84 151 
84 154 
84 156 
84 158 
84 160 
84 161 
84 163 
84 165 
84 168 
84 170 
84 172 
84 174 
84 175 
85 86 
85 89 
85 91 
85 94 
85 95 
85 97 
85 100 
85 102 
85 103 
85 105 
85 108 
85 109 
85 112 
85 114 
85 115 
85 118 
85 120 
85 122 
85 124 
85 126 
85 127 
85 129 
85 131 
85 133 
85 135 
85 138 
85 139 
85 142 
85 144 
85 145 
85 147 
85 150 
85 151 
85 154 
85 156 
85 158 
85 160 
85 161 
85 164 
85 166 
85 168 
85 170 
85 171 
85 173 
85 175 
86 90 
86 92 
86 93 
86 96 
86 98 
86 99 
86 101 
86 104 
86 106 
86 107 
86 110 
86 111 
86 113 
86 116 
86 117 
86 119 
86 121 
86 123 
86 125 
86 128 
86 130 
86 132 
86 134 
86 136 
86 137 
86 140 
86 141 
86 143 
86 146 
86 148 
86 149 
86 152 
86 153 
86 155 
86 157 
86 159 
86 162 
86 163 
86 165 
86 167 
86 169 
86 172 
86 174 
86 176 
87 88 
87 90 
87 92 
87 94 
87 96 
87 98 
87 100 
87 102 
87 103 
87 105 
87 108 
87 109 
87 112 
87 113 
87 116 
87 117 
87 120 
87 121 
87 123 
87 125 
87 127 
87 130 
87 132 
87 134 
87 136 
87 138 
87 139 
87 141 
87 144 
87 145 
87 148 
87 150 
87 151 
87 153 
87 155 
87 158 
87 159 
87 161 
87 163 
87 166 
87 168 
87 169 
87 172 
87 173 
87 175 
88 89 
88 91 
88 93 
88 95 
88 97 
88 99 
88 101 
88 104 
88 106 
88 107 
88 110 
88 111 
88 114 
88 115 
88 118 
88 119 
88 122 
88 124 
88 126 
88 128 
88 129 
88 131 
88 133 
88 135 
88 137 
88 140 
88 142 
88 143 
88 146 
88 147 
88 149 
88 152 
88 154 
88 156 
88 157 
88 160 
88 162 
88 164 
88 165 
88 167 
88 170 
88 171 
88 174 
88 176 
89 90 
91 92 
93 94 
95 96 
97 98 
99 100 
101 102 
103 104 
105 106 
107 108 
109 110 
111 112 
113 114 
115 116 
117 118 
119 120 
121 122 
123 124 
125 126 
127 128 
129 130 
131 132 
133 134 
135 136 
137 138 
139 140 
141 142 
143 144 
145 146 
147 148 
149 150 
151 152 
153 154 
155 156 
157 158 
159 160 
161 162 
163 164 
165 166 
167 168 
169 170 
171 172 
173 174 
175 176 
